M = 6;
N = 10;
E = 72;
l = [200, 100, 200, 300, 200, 100];
p = [16, 25, 21, 14, 19, 14, 6, 20];
from = [9, 9, 9, 9, 9, 9, 9, 9, 1, 1, 1, 1, 1, 1, 1, 1, 2, 2, 2, 2, 2, 2, 2, 2, 3, 3, 3, 3, 3, 3, 3, 3, 4, 4, 4, 4, 4, 4, 4, 4, 5, 5, 5, 5, 5, 5, 5, 5, 6, 6, 6, 6, 6, 6, 6, 6, 7, 7, 7, 7, 7, 7, 7, 7, 8, 8, 8, 8, 8, 8, 8, 8];
to = [1, 2, 3, 4, 5, 6, 7, 8, 2, 3, 4, 5, 6, 7, 8, 10, 1, 3, 4, 5, 6, 7, 8, 10, 1, 2, 4, 5, 6, 7, 8, 10, 1, 2, 3, 5, 6, 7, 8, 10, 1, 2, 3, 4, 6, 7, 8, 10, 1, 2, 3, 4, 5, 7, 8, 10, 1, 2, 3, 4, 5, 6, 8, 10, 1, 2, 3, 4, 5, 6, 7, 10];
w = [113, 57, 28, 101, 154, 24, 36, 161, 80, 131, 22, 41, 127, 87, 48, 113, 60, 85, 82, 101, 81, 53, 106, 57, 141, 83, 129, 182, 4, 64, 189, 28, 22, 82, 129, 55, 125, 65, 66, 101, 41, 99, 172, 55, 168, 118, 11, 154, 137, 81, 4, 125, 178, 60, 185, 32, 77, 63, 64, 65, 118, 60, 125, 36, 48, 126, 179, 60, 58, 175, 125, 161];
